param n := 120;
param c := 150;
param : V : p w :=
   0	  48	  38
   1	 110	 100
   2	  70	  60
   3	  52	  42
   4	  30	  20
   5	  79	  69
   6	  34	  24
   7	  33	  23
   8	 102	  92
   9	  42	  32
  10	  94	  84
  11	  46	  36
  12	  75	  65
  13	  94	  84
  14	  44	  34
  15	  78	  68
  16	  74	  64
  17	  43	  33
  18	  79	  69
  19	  37	  27
  20	  57	  47
  21	  31	  21
  22	  95	  85
  23	  98	  88
  24	  69	  59
  25	  71	  61
  26	  60	  50
  27	  63	  53
  28	  47	  37
  29	  85	  75
  30	  74	  64
  31	  94	  84
  32	  84	  74
  33	  67	  57
  34	  93	  83
  35	  38	  28
  36	  41	  31
  37	 107	  97
  38	  71	  61
  39	  46	  36
  40	  56	  46
  41	  47	  37
  42	 106	  96
  43	  90	  80
  44	  63	  53
  45	  61	  51
  46	  78	  68
  47	 100	  90
  48	  74	  64
  49	  91	  81
  50	  76	  66
  51	  77	  67
  52	  90	  80
  53	  47	  37
  54	 102	  92
  55	  77	  67
  56	  74	  64
  57	  41	  31
  58	 104	  94
  59	  55	  45
  60	  90	  80
  61	  38	  28
  62	  86	  76
  63	  39	  29
  64	  74	  64
  65	  48	  38
  66	  58	  48
  67	  50	  40
  68	  39	  29
  69	  54	  44
  70	  91	  81
  71	  45	  35
  72	  61	  51
  73	  58	  48
  74	  77	  67
  75	  34	  24
  76	  56	  46
  77	  48	  38
  78	  86	  76
  79	  32	  22
  80	  40	  30
  81	  77	  67
  82	  55	  45
  83	  51	  41
  84	  39	  29
  85	  51	  41
  86	  89	  79
  87	  31	  21
  88	  35	  25
  89	 100	  90
  90	  72	  62
  91	  44	  34
  92	  83	  73
  93	  60	  50
  94	  89	  79
  95	  76	  66
  96	  69	  59
  97	  52	  42
  98	 100	  90
  99	  89	  79
 100	  80	  70
 101	  76	  66
 102	  90	  80
 103	  45	  35
 104	  72	  62
 105	 108	  98
 106	 107	  97
 107	  47	  37
 108	  42	  32
 109	  85	  75
 110	 101	  91
 111	 101	  91
 112	  58	  48
 113	  36	  26
 114	  33	  23
 115	  42	  32
 116	 110	 100
 117	  56	  46
 118	  39	  29
 119	  36	  26
;

set E :=
   0	   5
   0	   7
   0	   8
   0	  14
   0	  15
   0	  17
   0	  18
   0	  24
   0	  25
   0	  28
   0	  38
   0	  40
   0	  43
   0	  46
   0	  47
   0	  48
   0	  51
   0	  54
   0	  58
   0	  59
   0	  60
   0	  61
   0	  65
   0	  66
   0	  67
   0	  68
   0	  70
   0	  72
   0	  79
   0	  80
   0	  82
   0	  83
   0	  85
   0	  88
   0	  89
   0	  90
   0	  91
   0	  92
   0	  93
   0	  96
   0	  97
   0	 100
   0	 103
   0	 106
   0	 107
   0	 108
   0	 111
   0	 113
   0	 114
   0	 115
   0	 117
   0	 118
   1	   2
   1	   4
   1	   5
   1	   8
   1	  10
   1	  16
   1	  17
   1	  18
   1	  19
   1	  20
   1	  21
   1	  22
   1	  26
   1	  29
   1	  30
   1	  32
   1	  33
   1	  42
   1	  45
   1	  48
   1	  49
   1	  50
   1	  51
   1	  52
   1	  53
   1	  54
   1	  59
   1	  63
   1	  65
   1	  66
   1	  67
   1	  70
   1	  72
   1	  74
   1	  77
   1	  78
   1	  80
   1	  81
   1	  91
   1	  93
   1	  94
   1	  95
   1	  96
   1	  97
   1	  98
   1	 105
   1	 108
   1	 113
   1	 115
   1	 116
   1	 117
   1	 119
   2	   3
   2	   9
   2	  12
   2	  13
   2	  19
   2	  21
   2	  22
   2	  23
   2	  24
   2	  28
   2	  30
   2	  32
   2	  33
   2	  38
   2	  39
   2	  40
   2	  41
   2	  43
   2	  44
   2	  45
   2	  46
   2	  50
   2	  57
   2	  58
   2	  62
   2	  64
   2	  65
   2	  67
   2	  68
   2	  70
   2	  74
   2	  76
   2	  77
   2	  80
   2	  82
   2	  84
   2	  86
   2	  87
   2	  91
   2	  93
   2	  94
   2	  96
   2	  97
   2	  98
   2	 101
   2	 106
   2	 107
   2	 108
   2	 111
   2	 112
   2	 114
   2	 115
   2	 117
   2	 119
   3	   4
   3	   6
   3	   8
   3	  12
   3	  13
   3	  15
   3	  22
   3	  25
   3	  29
   3	  32
   3	  33
   3	  34
   3	  39
   3	  40
   3	  44
   3	  45
   3	  50
   3	  51
   3	  53
   3	  55
   3	  59
   3	  62
   3	  63
   3	  69
   3	  70
   3	  72
   3	  78
   3	  80
   3	  83
   3	  85
   3	  86
   3	  90
   3	  94
   3	  96
   3	  97
   3	  98
   3	 105
   3	 107
   3	 108
   3	 109
   3	 111
   3	 113
   3	 119
   4	   5
   4	   6
   4	   7
   4	  11
   4	  15
   4	  16
   4	  20
   4	  22
   4	  25
   4	  31
   4	  38
   4	  41
   4	  43
   4	  45
   4	  46
   4	  48
   4	  49
   4	  51
   4	  54
   4	  55
   4	  59
   4	  61
   4	  62
   4	  64
   4	  66
   4	  67
   4	  69
   4	  70
   4	  73
   4	  75
   4	  80
   4	  81
   4	  82
   4	  85
   4	  91
   4	  92
   4	  93
   4	  94
   4	  96
   4	  99
   4	 101
   4	 102
   4	 104
   4	 105
   4	 113
   4	 117
   5	   6
   5	  17
   5	  20
   5	  28
   5	  29
   5	  30
   5	  35
   5	  36
   5	  37
   5	  40
   5	  43
   5	  48
   5	  50
   5	  56
   5	  59
   5	  61
   5	  62
   5	  63
   5	  66
   5	  69
   5	  71
   5	  77
   5	  80
   5	  81
   5	  83
   5	  85
   5	  87
   5	  92
   5	  93
   5	  95
   5	  97
   5	 102
   5	 103
   5	 109
   5	 113
   5	 116
   6	   7
   6	   8
   6	  11
   6	  13
   6	  17
   6	  21
   6	  24
   6	  25
   6	  30
   6	  33
   6	  35
   6	  36
   6	  37
   6	  38
   6	  39
   6	  41
   6	  48
   6	  51
   6	  54
   6	  56
   6	  58
   6	  59
   6	  61
   6	  62
   6	  63
   6	  64
   6	  66
   6	  75
   6	  77
   6	  78
   6	  79
   6	  80
   6	  82
   6	  87
   6	  90
   6	  94
   6	  98
   6	 102
   6	 106
   6	 109
   6	 112
   6	 117
   6	 118
   6	 119
   7	  13
   7	  14
   7	  16
   7	  19
   7	  20
   7	  23
   7	  26
   7	  27
   7	  32
   7	  33
   7	  34
   7	  36
   7	  37
   7	  42
   7	  44
   7	  46
   7	  49
   7	  50
   7	  51
   7	  53
   7	  54
   7	  56
   7	  57
   7	  58
   7	  60
   7	  61
   7	  67
   7	  72
   7	  76
   7	  77
   7	  82
   7	  83
   7	  86
   7	  89
   7	  94
   7	  97
   7	  99
   7	 105
   7	 107
   7	 108
   7	 110
   7	 113
   7	 114
   7	 116
   8	   9
   8	  12
   8	  14
   8	  21
   8	  23
   8	  24
   8	  28
   8	  29
   8	  32
   8	  36
   8	  38
   8	  39
   8	  45
   8	  46
   8	  47
   8	  48
   8	  50
   8	  52
   8	  55
   8	  58
   8	  59
   8	  60
   8	  62
   8	  63
   8	  64
   8	  65
   8	  66
   8	  70
   8	  75
   8	  79
   8	  81
   8	  83
   8	  84
   8	  91
   8	  96
   8	  97
   8	  98
   8	 101
   8	 102
   8	 104
   8	 105
   8	 108
   8	 109
   8	 112
   8	 114
   8	 115
   9	  12
   9	  13
   9	  15
   9	  17
   9	  18
   9	  19
   9	  21
   9	  22
   9	  23
   9	  24
   9	  25
   9	  26
   9	  29
   9	  30
   9	  31
   9	  33
   9	  34
   9	  35
   9	  37
   9	  40
   9	  41
   9	  42
   9	  45
   9	  47
   9	  52
   9	  56
   9	  57
   9	  61
   9	  62
   9	  65
   9	  66
   9	  67
   9	  69
   9	  70
   9	  73
   9	  75
   9	  78
   9	  81
   9	  83
   9	  86
   9	  87
   9	  96
   9	  97
   9	 100
   9	 102
   9	 103
   9	 108
   9	 110
   9	 111
   9	 113
   9	 114
   9	 115
   9	 118
  10	  11
  10	  12
  10	  14
  10	  15
  10	  17
  10	  22
  10	  23
  10	  27
  10	  29
  10	  30
  10	  32
  10	  33
  10	  35
  10	  36
  10	  38
  10	  39
  10	  41
  10	  43
  10	  49
  10	  50
  10	  52
  10	  53
  10	  54
  10	  60
  10	  64
  10	  69
  10	  71
  10	  72
  10	  77
  10	  79
  10	  81
  10	  87
  10	  91
  10	  92
  10	  98
  10	  99
  10	 107
  10	 113
  10	 116
  10	 119
  11	  13
  11	  16
  11	  17
  11	  19
  11	  21
  11	  22
  11	  23
  11	  27
  11	  28
  11	  29
  11	  36
  11	  39
  11	  41
  11	  42
  11	  44
  11	  46
  11	  47
  11	  48
  11	  50
  11	  52
  11	  57
  11	  58
  11	  60
  11	  62
  11	  63
  11	  66
  11	  73
  11	  76
  11	  77
  11	  80
  11	  85
  11	  88
  11	  89
  11	  94
  11	  95
  11	  98
  11	 109
  11	 110
  11	 112
  11	 115
  11	 117
  11	 119
  12	  13
  12	  14
  12	  17
  12	  20
  12	  21
  12	  25
  12	  26
  12	  30
  12	  32
  12	  35
  12	  39
  12	  43
  12	  46
  12	  48
  12	  50
  12	  57
  12	  59
  12	  63
  12	  64
  12	  66
  12	  67
  12	  71
  12	  72
  12	  74
  12	  77
  12	  78
  12	  81
  12	  83
  12	  86
  12	  87
  12	  88
  12	  89
  12	  90
  12	  98
  12	 100
  12	 106
  12	 111
  12	 113
  12	 115
  12	 117
  13	  16
  13	  18
  13	  20
  13	  21
  13	  23
  13	  25
  13	  26
  13	  32
  13	  35
  13	  40
  13	  44
  13	  45
  13	  46
  13	  49
  13	  50
  13	  52
  13	  53
  13	  62
  13	  68
  13	  70
  13	  79
  13	  80
  13	  81
  13	  82
  13	  86
  13	  87
  13	  88
  13	  90
  13	  92
  13	  93
  13	  95
  13	  96
  13	  98
  13	 103
  13	 106
  13	 109
  13	 110
  13	 113
  13	 115
  13	 118
  13	 119
  14	  16
  14	  17
  14	  19
  14	  29
  14	  33
  14	  36
  14	  39
  14	  40
  14	  42
  14	  44
  14	  45
  14	  46
  14	  48
  14	  51
  14	  52
  14	  53
  14	  57
  14	  61
  14	  68
  14	  69
  14	  70
  14	  71
  14	  74
  14	  75
  14	  80
  14	  85
  14	  87
  14	  89
  14	  91
  14	  94
  14	  95
  14	  99
  14	 100
  14	 102
  14	 104
  14	 105
  14	 106
  14	 110
  14	 114
  14	 115
  14	 119
  15	  18
  15	  19
  15	  25
  15	  26
  15	  29
  15	  30
  15	  32
  15	  34
  15	  37
  15	  40
  15	  42
  15	  43
  15	  44
  15	  45
  15	  49
  15	  52
  15	  53
  15	  57
  15	  58
  15	  59
  15	  60
  15	  62
  15	  63
  15	  65
  15	  66
  15	  70
  15	  72
  15	  74
  15	  75
  15	  76
  15	  79
  15	  80
  15	  85
  15	  88
  15	  92
  15	  96
  15	  97
  15	  98
  15	  99
  15	 102
  15	 104
  15	 105
  15	 106
  15	 107
  15	 111
  15	 112
  15	 113
  15	 118
  16	  19
  16	  21
  16	  30
  16	  32
  16	  33
  16	  34
  16	  35
  16	  38
  16	  39
  16	  40
  16	  42
  16	  43
  16	  44
  16	  45
  16	  46
  16	  47
  16	  48
  16	  50
  16	  52
  16	  54
  16	  56
  16	  58
  16	  63
  16	  64
  16	  65
  16	  68
  16	  69
  16	  74
  16	  75
  16	  76
  16	  78
  16	  82
  16	  85
  16	  86
  16	  87
  16	  91
  16	  92
  16	  93
  16	  98
  16	 103
  16	 107
  16	 111
  16	 113
  16	 114
  16	 116
  17	  18
  17	  22
  17	  24
  17	  25
  17	  27
  17	  28
  17	  29
  17	  33
  17	  39
  17	  41
  17	  42
  17	  43
  17	  47
  17	  49
  17	  50
  17	  51
  17	  54
  17	  56
  17	  57
  17	  58
  17	  59
  17	  61
  17	  63
  17	  65
  17	  68
  17	  70
  17	  71
  17	  75
  17	  80
  17	  82
  17	  85
  17	  90
  17	  95
  17	  96
  17	  98
  17	  99
  17	 101
  17	 102
  17	 105
  17	 107
  17	 108
  17	 111
  17	 112
  17	 117
  17	 119
  18	  20
  18	  24
  18	  26
  18	  27
  18	  30
  18	  31
  18	  37
  18	  40
  18	  45
  18	  46
  18	  49
  18	  51
  18	  56
  18	  57
  18	  59
  18	  61
  18	  62
  18	  67
  18	  71
  18	  73
  18	  74
  18	  75
  18	  77
  18	  82
  18	  84
  18	  88
  18	  89
  18	  91
  18	  93
  18	  94
  18	  95
  18	 102
  18	 106
  18	 107
  18	 108
  18	 112
  18	 114
  18	 116
  18	 117
  18	 118
  18	 119
  19	  20
  19	  23
  19	  24
  19	  28
  19	  33
  19	  34
  19	  35
  19	  37
  19	  40
  19	  41
  19	  42
  19	  43
  19	  46
  19	  51
  19	  52
  19	  55
  19	  68
  19	  70
  19	  76
  19	  80
  19	  81
  19	  90
  19	  92
  19	  93
  19	  99
  19	 105
  19	 106
  19	 109
  19	 115
  20	  21
  20	  23
  20	  27
  20	  30
  20	  31
  20	  37
  20	  39
  20	  43
  20	  44
  20	  47
  20	  50
  20	  54
  20	  55
  20	  57
  20	  59
  20	  60
  20	  61
  20	  63
  20	  64
  20	  66
  20	  68
  20	  69
  20	  71
  20	  72
  20	  73
  20	  77
  20	  78
  20	  80
  20	  81
  20	  82
  20	  83
  20	  84
  20	  85
  20	  86
  20	  88
  20	  89
  20	  90
  20	  93
  20	  97
  20	 103
  20	 105
  20	 109
  20	 110
  20	 111
  20	 115
  20	 116
  20	 118
  20	 119
  21	  22
  21	  24
  21	  25
  21	  27
  21	  29
  21	  31
  21	  35
  21	  40
  21	  41
  21	  43
  21	  50
  21	  51
  21	  52
  21	  58
  21	  59
  21	  62
  21	  63
  21	  67
  21	  68
  21	  70
  21	  71
  21	  79
  21	  80
  21	  82
  21	  85
  21	  86
  21	  87
  21	  90
  21	  91
  21	  92
  21	  93
  21	  95
  21	  97
  21	  98
  21	 100
  21	 103
  21	 104
  21	 106
  21	 109
  21	 110
  21	 111
  21	 115
  21	 116
  21	 117
  22	  24
  22	  26
  22	  30
  22	  33
  22	  34
  22	  37
  22	  38
  22	  39
  22	  41
  22	  42
  22	  44
  22	  45
  22	  46
  22	  47
  22	  48
  22	  49
  22	  53
  22	  56
  22	  57
  22	  64
  22	  65
  22	  66
  22	  68
  22	  72
  22	  76
  22	  78
  22	  79
  22	  82
  22	  85
  22	  87
  22	  88
  22	  89
  22	  94
  22	  96
  22	  97
  22	 100
  22	 101
  22	 102
  22	 105
  22	 107
  22	 108
  22	 110
  22	 111
  22	 115
  22	 116
  22	 117
  22	 118
  22	 119
  23	  24
  23	  25
  23	  27
  23	  28
  23	  29
  23	  30
  23	  31
  23	  35
  23	  36
  23	  40
  23	  44
  23	  45
  23	  47
  23	  50
  23	  53
  23	  56
  23	  60
  23	  62
  23	  63
  23	  64
  23	  66
  23	  67
  23	  72
  23	  76
  23	  78
  23	  79
  23	  80
  23	  81
  23	  82
  23	  83
  23	  86
  23	  89
  23	  93
  23	  94
  23	  98
  23	  99
  23	 100
  23	 101
  23	 102
  23	 103
  23	 105
  23	 106
  23	 107
  23	 108
  23	 112
  23	 113
  24	  26
  24	  27
  24	  31
  24	  34
  24	  40
  24	  41
  24	  44
  24	  49
  24	  50
  24	  53
  24	  54
  24	  56
  24	  61
  24	  63
  24	  64
  24	  66
  24	  68
  24	  71
  24	  72
  24	  77
  24	  79
  24	  83
  24	  85
  24	  89
  24	  92
  24	  94
  24	  95
  24	  98
  24	 102
  24	 106
  24	 118
  25	  29
  25	  32
  25	  35
  25	  40
  25	  41
  25	  42
  25	  45
  25	  46
  25	  47
  25	  48
  25	  49
  25	  52
  25	  53
  25	  54
  25	  56
  25	  62
  25	  63
  25	  64
  25	  67
  25	  69
  25	  70
  25	  74
  25	  75
  25	  79
  25	  81
  25	  83
  25	  85
  25	  88
  25	  89
  25	  90
  25	  91
  25	  92
  25	  94
  25	  95
  25	  97
  25	 100
  25	 101
  25	 102
  25	 104
  25	 105
  25	 108
  25	 110
  25	 112
  25	 114
  25	 115
  25	 116
  26	  30
  26	  34
  26	  36
  26	  37
  26	  40
  26	  43
  26	  45
  26	  46
  26	  49
  26	  50
  26	  64
  26	  66
  26	  67
  26	  68
  26	  69
  26	  71
  26	  72
  26	  76
  26	  78
  26	  79
  26	  89
  26	  91
  26	  94
  26	  97
  26	 101
  26	 103
  26	 105
  26	 106
  26	 107
  26	 108
  26	 117
  26	 118
  27	  29
  27	  33
  27	  39
  27	  40
  27	  42
  27	  43
  27	  44
  27	  47
  27	  48
  27	  49
  27	  50
  27	  53
  27	  58
  27	  59
  27	  62
  27	  63
  27	  67
  27	  69
  27	  71
  27	  75
  27	  77
  27	  80
  27	  83
  27	  85
  27	  86
  27	  89
  27	  92
  27	  98
  27	  99
  27	 101
  27	 102
  27	 104
  27	 106
  27	 110
  27	 111
  27	 114
  27	 116
  28	  30
  28	  34
  28	  35
  28	  46
  28	  47
  28	  53
  28	  55
  28	  56
  28	  59
  28	  64
  28	  65
  28	  66
  28	  67
  28	  69
  28	  73
  28	  74
  28	  79
  28	  84
  28	  85
  28	  87
  28	  89
  28	  90
  28	  92
  28	  97
  28	  98
  28	 100
  28	 102
  28	 103
  28	 104
  28	 105
  28	 108
  28	 109
  28	 114
  28	 115
  28	 116
  28	 118
  29	  30
  29	  31
  29	  32
  29	  44
  29	  45
  29	  50
  29	  51
  29	  55
  29	  57
  29	  58
  29	  61
  29	  64
  29	  65
  29	  66
  29	  67
  29	  68
  29	  72
  29	  73
  29	  76
  29	  78
  29	  82
  29	  84
  29	  86
  29	  87
  29	  88
  29	  91
  29	  93
  29	  97
  29	 100
  29	 103
  29	 107
  29	 109
  29	 113
  29	 114
  29	 116
  29	 117
  29	 118
  30	  31
  30	  38
  30	  39
  30	  41
  30	  43
  30	  44
  30	  48
  30	  53
  30	  54
  30	  55
  30	  56
  30	  59
  30	  62
  30	  63
  30	  65
  30	  66
  30	  68
  30	  70
  30	  74
  30	  76
  30	  77
  30	  78
  30	  79
  30	  80
  30	  82
  30	  83
  30	  87
  30	  89
  30	  92
  30	  93
  30	  94
  30	  95
  30	  98
  30	 100
  30	 101
  30	 102
  30	 103
  30	 104
  30	 107
  30	 108
  30	 109
  30	 111
  30	 116
  30	 119
  31	  32
  31	  36
  31	  40
  31	  42
  31	  48
  31	  49
  31	  50
  31	  51
  31	  54
  31	  55
  31	  57
  31	  59
  31	  62
  31	  65
  31	  66
  31	  67
  31	  68
  31	  71
  31	  73
  31	  74
  31	  76
  31	  81
  31	  82
  31	  84
  31	  85
  31	  86
  31	  91
  31	  92
  31	  93
  31	  96
  31	  97
  31	 100
  31	 104
  31	 108
  31	 109
  31	 110
  31	 117
  31	 118
  32	  36
  32	  37
  32	  38
  32	  43
  32	  45
  32	  48
  32	  49
  32	  50
  32	  53
  32	  54
  32	  59
  32	  61
  32	  62
  32	  67
  32	  68
  32	  71
  32	  73
  32	  75
  32	  76
  32	  78
  32	  80
  32	  81
  32	  82
  32	  83
  32	  89
  32	  90
  32	  91
  32	  93
  32	  94
  32	 100
  32	 101
  32	 102
  32	 104
  32	 105
  32	 106
  32	 108
  32	 109
  32	 114
  32	 117
  33	  34
  33	  37
  33	  38
  33	  44
  33	  45
  33	  46
  33	  51
  33	  52
  33	  60
  33	  62
  33	  63
  33	  66
  33	  68
  33	  71
  33	  74
  33	  75
  33	  81
  33	  83
  33	  84
  33	  88
  33	  91
  33	  92
  33	  94
  33	  95
  33	  97
  33	 114
  33	 115
  33	 116
  33	 117
  34	  38
  34	  39
  34	  44
  34	  53
  34	  55
  34	  59
  34	  61
  34	  63
  34	  64
  34	  65
  34	  66
  34	  69
  34	  70
  34	  73
  34	  74
  34	  75
  34	  76
  34	  84
  34	  85
  34	  87
  34	  90
  34	  91
  34	  92
  34	  97
  34	 100
  34	 102
  34	 107
  34	 110
  34	 116
  34	 117
  35	  38
  35	  44
  35	  50
  35	  53
  35	  54
  35	  56
  35	  57
  35	  60
  35	  61
  35	  69
  35	  71
  35	  74
  35	  81
  35	  86
  35	  87
  35	  92
  35	  94
  35	  95
  35	 100
  35	 105
  35	 114
  35	 116
  35	 117
  36	  43
  36	  44
  36	  45
  36	  52
  36	  58
  36	  60
  36	  62
  36	  71
  36	  74
  36	  76
  36	  79
  36	  83
  36	  85
  36	  86
  36	  91
  36	  99
  36	 105
  36	 107
  36	 109
  36	 113
  36	 114
  36	 115
  36	 117
  37	  39
  37	  42
  37	  44
  37	  45
  37	  46
  37	  47
  37	  50
  37	  52
  37	  53
  37	  54
  37	  59
  37	  60
  37	  61
  37	  62
  37	  63
  37	  66
  37	  67
  37	  68
  37	  69
  37	  70
  37	  73
  37	  74
  37	  79
  37	  86
  37	  91
  37	  99
  37	 102
  37	 105
  37	 109
  37	 110
  37	 113
  37	 117
  38	  46
  38	  47
  38	  50
  38	  54
  38	  57
  38	  59
  38	  65
  38	  67
  38	  72
  38	  80
  38	  81
  38	  82
  38	  84
  38	  87
  38	  89
  38	  92
  38	  93
  38	  95
  38	  96
  38	  97
  38	  98
  38	  99
  38	 102
  38	 103
  38	 108
  38	 110
  38	 112
  38	 113
  38	 115
  38	 117
  38	 119
  39	  40
  39	  43
  39	  44
  39	  46
  39	  49
  39	  50
  39	  53
  39	  55
  39	  58
  39	  60
  39	  63
  39	  67
  39	  69
  39	  71
  39	  75
  39	  76
  39	  79
  39	  81
  39	  82
  39	  83
  39	  85
  39	  87
  39	  95
  39	  96
  39	  97
  39	 101
  39	 102
  39	 106
  39	 108
  39	 109
  39	 110
  39	 112
  39	 114
  39	 117
  40	  43
  40	  45
  40	  47
  40	  49
  40	  53
  40	  54
  40	  56
  40	  61
  40	  62
  40	  65
  40	  66
  40	  69
  40	  71
  40	  79
  40	  81
  40	  86
  40	  88
  40	  89
  40	  92
  40	  94
  40	  97
  40	  98
  40	  99
  40	 102
  40	 103
  40	 105
  40	 107
  40	 109
  40	 111
  40	 112
  40	 113
  40	 114
  40	 116
  41	  42
  41	  45
  41	  47
  41	  49
  41	  54
  41	  55
  41	  56
  41	  58
  41	  63
  41	  64
  41	  65
  41	  66
  41	  69
  41	  70
  41	  73
  41	  74
  41	  77
  41	  79
  41	  80
  41	  83
  41	  84
  41	  85
  41	  86
  41	  87
  41	  93
  41	  95
  41	  97
  41	  98
  41	 100
  41	 101
  41	 102
  41	 105
  41	 110
  41	 118
  41	 119
  42	  45
  42	  46
  42	  47
  42	  51
  42	  56
  42	  57
  42	  64
  42	  66
  42	  67
  42	  70
  42	  78
  42	  80
  42	  81
  42	  82
  42	  83
  42	  88
  42	  93
  42	  94
  42	  98
  42	 103
  42	 105
  42	 107
  42	 110
  42	 111
  42	 112
  42	 113
  42	 114
  42	 119
  43	  47
  43	  48
  43	  49
  43	  50
  43	  54
  43	  60
  43	  61
  43	  64
  43	  72
  43	  73
  43	  75
  43	  78
  43	  79
  43	  80
  43	  85
  43	  86
  43	  88
  43	  89
  43	  90
  43	  91
  43	  92
  43	  94
  43	  95
  43	  97
  43	 101
  43	 102
  43	 104
  43	 109
  43	 111
  43	 114
  43	 115
  43	 116
  43	 117
  43	 119
  44	  47
  44	  49
  44	  53
  44	  54
  44	  56
  44	  57
  44	  59
  44	  67
  44	  70
  44	  71
  44	  75
  44	  76
  44	  80
  44	  83
  44	  84
  44	  85
  44	  87
  44	  88
  44	  89
  44	  90
  44	  93
  44	  94
  44	  95
  44	  96
  44	  97
  44	  99
  44	 102
  44	 107
  44	 109
  44	 113
  44	 115
  44	 116
  44	 117
  44	 119
  45	  48
  45	  54
  45	  58
  45	  61
  45	  62
  45	  63
  45	  66
  45	  67
  45	  68
  45	  71
  45	  74
  45	  75
  45	  77
  45	  78
  45	  80
  45	  82
  45	  83
  45	  86
  45	  87
  45	  88
  45	  90
  45	  94
  45	  95
  45	  97
  45	  99
  45	 101
  45	 107
  45	 108
  45	 110
  45	 111
  45	 114
  45	 117
  45	 119
  46	  47
  46	  48
  46	  51
  46	  52
  46	  56
  46	  58
  46	  59
  46	  61
  46	  63
  46	  64
  46	  66
  46	  68
  46	  69
  46	  71
  46	  73
  46	  78
  46	  79
  46	  80
  46	  86
  46	  91
  46	  94
  46	  95
  46	  96
  46	  98
  46	 108
  46	 109
  46	 110
  46	 111
  46	 112
  46	 113
  46	 119
  47	  50
  47	  52
  47	  57
  47	  58
  47	  59
  47	  60
  47	  61
  47	  64
  47	  67
  47	  68
  47	  70
  47	  74
  47	  75
  47	  77
  47	  79
  47	  80
  47	  82
  47	  89
  47	  90
  47	  91
  47	  92
  47	  93
  47	  97
  47	 103
  47	 109
  47	 111
  47	 118
  47	 119
  48	  49
  48	  52
  48	  54
  48	  55
  48	  57
  48	  58
  48	  59
  48	  61
  48	  70
  48	  76
  48	  77
  48	  78
  48	  86
  48	  87
  48	  88
  48	  91
  48	  93
  48	  98
  48	 102
  48	 104
  48	 105
  48	 110
  48	 111
  48	 113
  48	 114
  48	 117
  48	 119
  49	  50
  49	  52
  49	  54
  49	  56
  49	  57
  49	  59
  49	  61
  49	  62
  49	  65
  49	  66
  49	  69
  49	  72
  49	  75
  49	  76
  49	  78
  49	  83
  49	  85
  49	  87
  49	  90
  49	  92
  49	  93
  49	  96
  49	  97
  49	  98
  49	 100
  49	 103
  49	 104
  49	 107
  49	 112
  49	 117
  49	 118
  49	 119
  50	  53
  50	  55
  50	  59
  50	  61
  50	  69
  50	  70
  50	  82
  50	  84
  50	  88
  50	  89
  50	  91
  50	  93
  50	  94
  50	 102
  50	 104
  50	 105
  50	 107
  50	 108
  50	 109
  50	 110
  50	 119
  51	  54
  51	  56
  51	  58
  51	  60
  51	  62
  51	  63
  51	  68
  51	  69
  51	  70
  51	  72
  51	  77
  51	  78
  51	  81
  51	  83
  51	  87
  51	  89
  51	  92
  51	  93
  51	  95
  51	  96
  51	  97
  51	  98
  51	 100
  51	 104
  51	 105
  51	 108
  51	 109
  51	 113
  51	 114
  51	 118
  52	  59
  52	  60
  52	  63
  52	  64
  52	  65
  52	  66
  52	  70
  52	  71
  52	  72
  52	  73
  52	  74
  52	  76
  52	  80
  52	  81
  52	  86
  52	  87
  52	  88
  52	  92
  52	  94
  52	  97
  52	  98
  52	 106
  52	 109
  52	 110
  52	 111
  52	 115
  52	 118
  53	  59
  53	  60
  53	  61
  53	  63
  53	  65
  53	  66
  53	  67
  53	  69
  53	  71
  53	  79
  53	  87
  53	  88
  53	  90
  53	  91
  53	  95
  53	  96
  53	  98
  53	  99
  53	 102
  53	 104
  53	 105
  53	 107
  53	 108
  53	 114
  53	 118
  53	 119
  54	  55
  54	  56
  54	  58
  54	  61
  54	  62
  54	  64
  54	  65
  54	  67
  54	  69
  54	  75
  54	  76
  54	  82
  54	  83
  54	  85
  54	  86
  54	  88
  54	  92
  54	  97
  54	  98
  54	 102
  54	 105
  54	 106
  54	 109
  54	 110
  54	 114
  54	 116
  54	 118
  54	 119
  55	  57
  55	  58
  55	  59
  55	  60
  55	  64
  55	  66
  55	  67
  55	  68
  55	  73
  55	  76
  55	  77
  55	  78
  55	  81
  55	  82
  55	  83
  55	  84
  55	  91
  55	  92
  55	  93
  55	  96
  55	  99
  55	 103
  55	 105
  55	 106
  55	 108
  55	 111
  55	 112
  55	 115
  56	  58
  56	  61
  56	  64
  56	  69
  56	  70
  56	  71
  56	  72
  56	  73
  56	  78
  56	  81
  56	  82
  56	  86
  56	  87
  56	  88
  56	  93
  56	  95
  56	  96
  56	  97
  56	  98
  56	  99
  56	 100
  56	 112
  56	 113
  56	 115
  56	 119
  57	  58
  57	  60
  57	  65
  57	  69
  57	  72
  57	  73
  57	  75
  57	  79
  57	  83
  57	  85
  57	  88
  57	  97
  57	  98
  57	  99
  57	 101
  57	 102
  57	 103
  57	 105
  57	 107
  57	 108
  57	 109
  57	 111
  57	 112
  57	 114
  57	 116
  58	  60
  58	  62
  58	  63
  58	  67
  58	  69
  58	  76
  58	  77
  58	  79
  58	  80
  58	  81
  58	  82
  58	  84
  58	  87
  58	  91
  58	  92
  58	  99
  58	 104
  58	 106
  58	 108
  58	 113
  58	 118
  59	  60
  59	  61
  59	  63
  59	  66
  59	  70
  59	  71
  59	  73
  59	  77
  59	  78
  59	  80
  59	  82
  59	  83
  59	  86
  59	  87
  59	  90
  59	 100
  59	 104
  59	 108
  59	 109
  59	 110
  59	 111
  59	 113
  59	 114
  59	 119
  60	  63
  60	  66
  60	  68
  60	  75
  60	  76
  60	  77
  60	  78
  60	  84
  60	  85
  60	  90
  60	  95
  60	  96
  60	 101
  60	 103
  60	 105
  60	 108
  60	 111
  60	 114
  60	 115
  60	 116
  60	 118
  61	  62
  61	  63
  61	  64
  61	  67
  61	  68
  61	  69
  61	  70
  61	  72
  61	  73
  61	  76
  61	  80
  61	  81
  61	  85
  61	  86
  61	  89
  61	  92
  61	  93
  61	 100
  61	 104
  61	 110
  61	 111
  61	 112
  61	 113
  61	 115
  62	  64
  62	  67
  62	  71
  62	  72
  62	  73
  62	  77
  62	  80
  62	  82
  62	  84
  62	  87
  62	  88
  62	  94
  62	  97
  62	 102
  62	 103
  62	 104
  62	 108
  62	 113
  62	 119
  63	  67
  63	  70
  63	  76
  63	  78
  63	  81
  63	  82
  63	  87
  63	  90
  63	  94
  63	  98
  63	  99
  63	 102
  63	 103
  63	 104
  63	 105
  63	 106
  63	 107
  63	 108
  63	 109
  63	 111
  63	 112
  63	 113
  63	 114
  63	 116
  63	 118
  64	  65
  64	  68
  64	  69
  64	  71
  64	  73
  64	  74
  64	  75
  64	  76
  64	  77
  64	  78
  64	  79
  64	  80
  64	  83
  64	  85
  64	  86
  64	  88
  64	  90
  64	  91
  64	  95
  64	 101
  64	 102
  64	 103
  64	 110
  64	 111
  64	 112
  64	 116
  64	 119
  65	  67
  65	  70
  65	  73
  65	  77
  65	  78
  65	  80
  65	  81
  65	  82
  65	  84
  65	  85
  65	  88
  65	  89
  65	  90
  65	  91
  65	  94
  65	  96
  65	  97
  65	 101
  65	 107
  65	 108
  65	 110
  65	 111
  65	 113
  65	 117
  65	 118
  65	 119
  66	  67
  66	  72
  66	  74
  66	  79
  66	  82
  66	  89
  66	  90
  66	  93
  66	  94
  66	  99
  66	 100
  66	 101
  66	 102
  66	 106
  66	 110
  66	 112
  66	 113
  66	 114
  66	 117
  66	 119
  67	  70
  67	  71
  67	  73
  67	  77
  67	  80
  67	  82
  67	  83
  67	  86
  67	  87
  67	  88
  67	  89
  67	  91
  67	  92
  67	  93
  67	  95
  67	  96
  67	  97
  67	  98
  67	 100
  67	 103
  67	 104
  67	 107
  67	 109
  67	 114
  67	 115
  67	 116
  67	 119
  68	  71
  68	  76
  68	  78
  68	  83
  68	  84
  68	  85
  68	  89
  68	  92
  68	 102
  68	 104
  68	 107
  68	 109
  68	 110
  69	  72
  69	  73
  69	  74
  69	  78
  69	  79
  69	  86
  69	  92
  69	  96
  69	 100
  69	 101
  69	 103
  69	 104
  69	 109
  69	 111
  69	 113
  69	 115
  69	 116
  69	 118
  69	 119
  70	  74
  70	  75
  70	  77
  70	  79
  70	  81
  70	  82
  70	  83
  70	  86
  70	  87
  70	  88
  70	  89
  70	  92
  70	  94
  70	  98
  70	  99
  70	 100
  70	 101
  70	 103
  70	 106
  70	 107
  70	 110
  70	 111
  70	 115
  70	 117
  70	 118
  70	 119
  71	  76
  71	  77
  71	  78
  71	  83
  71	  85
  71	  87
  71	  89
  71	  90
  71	  92
  71	  94
  71	  95
  71	 100
  71	 101
  71	 102
  71	 103
  71	 106
  71	 107
  71	 112
  71	 116
  71	 117
  71	 118
  72	  78
  72	  81
  72	  84
  72	  86
  72	  87
  72	  95
  72	 103
  72	 105
  72	 108
  72	 109
  72	 112
  72	 113
  72	 114
  72	 117
  72	 118
  73	  74
  73	  78
  73	  79
  73	  80
  73	  82
  73	  84
  73	  85
  73	  89
  73	  90
  73	  93
  73	  94
  73	  95
  73	  99
  73	 104
  73	 106
  73	 107
  73	 111
  73	 112
  73	 113
  73	 119
  74	  80
  74	  84
  74	  86
  74	  87
  74	  88
  74	  89
  74	  90
  74	  92
  74	  94
  74	  96
  74	 101
  74	 104
  74	 105
  74	 106
  74	 109
  74	 110
  74	 113
  74	 116
  74	 118
  74	 119
  75	  76
  75	  78
  75	  82
  75	  88
  75	  90
  75	  91
  75	  92
  75	  93
  75	  97
  75	 105
  75	 107
  75	 110
  75	 114
  75	 119
  76	  77
  76	  81
  76	  85
  76	  86
  76	  89
  76	  90
  76	  93
  76	  94
  76	  97
  76	  98
  76	 103
  76	 104
  76	 109
  76	 110
  76	 112
  76	 115
  76	 116
  76	 117
  76	 118
  77	  82
  77	  85
  77	  86
  77	  91
  77	  92
  77	  95
  77	  97
  77	  99
  77	 101
  77	 103
  77	 104
  77	 106
  77	 110
  77	 114
  77	 119
  78	  79
  78	  87
  78	  88
  78	  90
  78	  91
  78	  99
  78	 106
  78	 107
  78	 109
  78	 111
  78	 113
  78	 114
  78	 116
  78	 117
  78	 119
  79	  80
  79	  81
  79	  82
  79	  85
  79	  86
  79	  87
  79	  91
  79	  92
  79	  93
  79	  94
  79	  95
  79	  97
  79	 103
  79	 104
  79	 106
  79	 110
  79	 111
  79	 112
  79	 115
  79	 117
  80	  82
  80	  83
  80	  91
  80	  93
  80	  96
  80	  97
  80	  98
  80	  99
  80	 102
  80	 106
  80	 108
  80	 111
  80	 113
  80	 114
  80	 116
  80	 117
  80	 119
  81	  82
  81	  83
  81	  91
  81	  96
  81	  97
  81	  99
  81	 100
  81	 101
  81	 103
  81	 104
  81	 105
  81	 110
  81	 113
  81	 116
  81	 118
  82	  84
  82	  86
  82	  87
  82	  91
  82	  92
  82	  95
  82	  96
  82	  97
  82	  99
  82	 100
  82	 108
  82	 116
  82	 119
  83	  84
  83	  87
  83	  89
  83	  90
  83	  92
  83	  96
  83	  98
  83	 102
  83	 103
  83	 106
  83	 108
  83	 112
  83	 115
  83	 118
  83	 119
  84	  86
  84	  91
  84	  92
  84	  93
  84	  94
  84	  95
  84	 103
  84	 106
  84	 108
  84	 111
  84	 117
  85	  86
  85	  88
  85	  89
  85	  96
  85	  97
  85	 102
  85	 106
  85	 107
  85	 110
  85	 111
  85	 112
  85	 114
  85	 115
  85	 117
  86	  87
  86	  88
  86	  90
  86	  93
  86	  97
  86	  98
  86	  99
  86	 106
  86	 110
  86	 111
  86	 114
  87	  90
  87	  91
  87	  99
  87	 100
  87	 101
  87	 106
  87	 116
  87	 117
  87	 118
  88	  89
  88	  91
  88	  92
  88	  93
  88	 104
  88	 105
  88	 107
  88	 108
  88	 113
  88	 114
  88	 119
  89	  90
  89	  91
  89	  92
  89	  96
  89	 110
  89	 111
  89	 112
  89	 113
  89	 115
  89	 118
  89	 119
  90	  92
  90	  95
  90	  98
  90	 106
  90	 109
  90	 113
  90	 114
  90	 115
  90	 117
  90	 118
  91	  94
  91	 101
  91	 105
  91	 106
  91	 109
  91	 111
  91	 112
  91	 115
  91	 118
  91	 119
  92	  93
  92	  96
  92	  97
  92	 100
  92	 104
  92	 106
  92	 107
  92	 108
  92	 110
  92	 111
  92	 115
  92	 116
  92	 117
  92	 119
  93	 101
  93	 103
  93	 104
  93	 106
  93	 107
  93	 113
  93	 119
  94	  96
  94	 109
  94	 110
  94	 113
  94	 118
  94	 119
  95	  99
  95	 102
  95	 103
  95	 104
  95	 105
  95	 106
  95	 107
  95	 110
  95	 113
  96	 103
  96	 106
  96	 108
  96	 112
  96	 119
  97	  99
  97	 100
  97	 101
  97	 103
  97	 106
  97	 108
  97	 111
  97	 116
  97	 117
  97	 119
  98	  99
  98	 100
  98	 101
  98	 103
  98	 104
  98	 105
  98	 106
  98	 108
  98	 111
  98	 112
  98	 113
  98	 115
  98	 118
  98	 119
  99	 100
  99	 102
  99	 108
  99	 109
  99	 110
  99	 111
  99	 113
  99	 116
  99	 117
 100	 101
 100	 105
 100	 111
 100	 112
 100	 114
 100	 116
 100	 118
 100	 119
 101	 103
 101	 105
 101	 107
 101	 108
 101	 109
 101	 110
 101	 116
 101	 118
 102	 104
 102	 109
 102	 110
 102	 112
 102	 113
 102	 116
 102	 117
 102	 118
 102	 119
 103	 104
 103	 110
 103	 118
 104	 107
 104	 111
 104	 113
 104	 115
 104	 117
 104	 119
 105	 108
 105	 109
 105	 110
 105	 118
 105	 119
 106	 107
 106	 108
 106	 109
 106	 113
 106	 114
 107	 110
 107	 112
 107	 116
 107	 118
 108	 109
 108	 115
 108	 116
 108	 117
 108	 118
 109	 110
 109	 112
 109	 114
 109	 115
 109	 116
 110	 112
 110	 117
 110	 118
 111	 112
 111	 115
 111	 119
 112	 119
 113	 115
 113	 118
 113	 119
 114	 117
 115	 117
 115	 119
 117	 118
 117	 119
;
